Reading model...
...model read.
creating competitive generators file...
...competitive generators recorded.
Loading data...
.. real-time data read.
Compiling instance...
...instance created.
Creating Offer Mitigation (model will solve as dispatch if TRUE)...
NOTE: storage offers will not be mitigated
...storage offer mitigation file created
Converting model to MPEC...
...converted
NOTE: initial MIP solve with only storage competitive to get feasible solution
Solving...

Welcome to IBM(R) ILOG(R) CPLEX(R) Interactive Optimizer 12.9.0.0
  with Simplex, Mixed Integer & Barrier Optimizers
5725-A06 5725-A29 5724-Y48 5724-Y49 5724-Y54 5724-Y55 5655-Y21
Copyright IBM Corp. 1988, 2019.  All Rights Reserved.

Type 'help' for a list of available commands.
Type 'help' followed by a command name for more
information on commands.

CPLEX> Logfile 'cplex.log' closed.
Logfile 'C:\Users\llavin\Desktop\test85\logs\tmpysuu7tis.cplex.log' open.
CPLEX> New value for parallel optimization mode: -1
CPLEX> New value for mixed integer optimality gap tolerance: 0.001
CPLEX> New value for deterministic time limit in ticks: 100000
CPLEX> Problem 'C:\Users\llavin\Desktop\test85\logs\tmp7vz0uy3x.pyomo.lp' read.
Read time = 0.51 sec. (27.84 ticks)
CPLEX> Problem name         : C:\Users\llavin\Desktop\test85\logs\tmp7vz0uy3x.pyomo.lp
Objective sense      : Maximize
Variables            :  107779  [Nneg: 1,  Box: 44054,  Free: 8928,
                                 Binary: 54796]
Objective nonzeros   :   17426
Linear constraints   :  246995  [Less: 82866,  Greater: 118424,  Equal: 45705]
  Nonzeros           :  580829
  RHS nonzeros       :  134688

Variables            : Min LB: -5000.000        Max UB: 1000000.       
Objective nonzeros   : Min   : 0.1944444        Max   : 2500.000       
Linear constraints   :
  Nonzeros           : Min   : 0.1944444        Max   : 1000000.       
  RHS nonzeros       : Min   : 0.1944444        Max   : 1000000.       
CPLEX> CPXPARAM_Parallel                                -1
CPXPARAM_DetTimeLimit                            100000
CPXPARAM_MIP_Tolerances_MIPGap                   0.001
Tried aggregator 3 times.
MIP Presolve eliminated 181888 rows and 41610 columns.
MIP Presolve added 6048 rows and 0 columns.
MIP Presolve modified 48874 coefficients.
Aggregator did 25839 substitutions.
Reduced MIP has 45316 rows, 38698 columns, and 125614 nonzeros.
Reduced MIP has 15232 binaries, 0 generals, 0 SOSs, and 0 indicators.
Presolve time = 0.59 sec. (333.09 ticks)
Probing fixed 749 vars, tightened 6838 bounds.
Probing time = 0.38 sec. (13.11 ticks)
Tried aggregator 2 times.
MIP Presolve eliminated 1692 rows and 1500 columns.
MIP Presolve modified 5389 coefficients.
Aggregator did 60 substitutions.
Reduced MIP has 43564 rows, 37138 columns, and 120550 nonzeros.
Reduced MIP has 14482 binaries, 0 generals, 0 SOSs, and 0 indicators.
Presolve time = 0.22 sec. (207.11 ticks)
Probing fixed 1 vars, tightened 147 bounds.
Probing time = 0.50 sec. (16.43 ticks)
Clique table members: 79443.
MIP emphasis: balance optimality and feasibility.
MIP search method: dynamic search.
Parallel mode: opportunistic, using up to 32 threads.
Root relaxation solution time = 0.83 sec. (1619.68 ticks)

        Nodes                                         Cuts/
   Node  Left     Objective  IInf  Best Integer    Best Bound    ItCnt     Gap

      0     0        0.0000   143                      0.0000     8043         
*     0+    0                            0.0000        0.0000             0.00%

Root node processing (before b&c):
  Real time             =    3.78 sec. (3013.08 ticks)
Parallel b&c, 32 threads:
  Real time             =    0.00 sec. (0.00 ticks)
  Sync time (average)   =    0.00 sec.
  Wait time (average)   =    0.00 sec.
                          ------------
Total (root+branch&cut) =    3.78 sec. (3013.08 ticks)

Solution pool: 1 solution saved.

MIP - Integer optimal, tolerance (0.001/1e-06):  Objective =  9.3223206932e-10
Current MIP best bound =  1.1960565871e-09 (gap = 2.63825e-10, 0.00%)
Solution time =    3.80 sec.  Iterations = 8043  Nodes = 0 (1)
Deterministic time = 3013.38 ticks  (793.62 ticks/sec)

CPLEX> Incumbent solution written to file 'C:\Users\llavin\Desktop\test85\logs\tmp7ia4yioi.cplex.sol'.
CPLEX> NOTE: no warmstart specified for MIP iteration, default behavior is true
NOTE: resolving with all competitive generators using storage-only solution to warmstart
Solving...

Welcome to IBM(R) ILOG(R) CPLEX(R) Interactive Optimizer 12.9.0.0
  with Simplex, Mixed Integer & Barrier Optimizers
5725-A06 5725-A29 5724-Y48 5724-Y49 5724-Y54 5724-Y55 5655-Y21
Copyright IBM Corp. 1988, 2019.  All Rights Reserved.

Type 'help' for a list of available commands.
Type 'help' followed by a command name for more
information on commands.

CPLEX> Logfile 'cplex.log' closed.
Logfile 'C:\Users\llavin\Desktop\test85\logs\tmpuor7f944.cplex.log' open.
CPLEX> New value for parallel optimization mode: -1
CPLEX> New value for mixed integer optimality gap tolerance: 0.001
CPLEX> New value for deterministic time limit in ticks: 100000
CPLEX> Problem 'C:\Users\llavin\Desktop\test85\logs\tmp6n2gk9co.pyomo.lp' read.
Read time = 0.53 sec. (27.89 ticks)
CPLEX> MIP start file 'C:\Users\llavin\Desktop\test85\logs\tmp46tg_b7q.cplex.mst' read.
CPLEX> Problem name         : C:\Users\llavin\Desktop\test85\logs\tmp6n2gk9co.pyomo.lp
Objective sense      : Maximize
Variables            :  109219  [Nneg: 1,  Box: 45494,  Free: 8928,
                                 Binary: 54796]
Objective nonzeros   :   18818
Linear constraints   :  246995  [Less: 82866,  Greater: 118424,  Equal: 45705]
  Nonzeros           :  580829
  RHS nonzeros       :  134688

Variables            : Min LB: -5000.000        Max UB: 1000000.       
Objective nonzeros   : Min   : 0.1944444        Max   : 2500.000       
Linear constraints   :
  Nonzeros           : Min   : 0.1944444        Max   : 1000000.       
  RHS nonzeros       : Min   : 0.1944444        Max   : 1000000.       
CPLEX> CPXPARAM_Parallel                                -1
CPXPARAM_DetTimeLimit                            100000
CPXPARAM_MIP_Tolerances_MIPGap                   0.001
1 of 1 MIP starts provided solutions.
MIP start 'm1' defined initial solution with objective 0.0000.
Tried aggregator 3 times.
MIP Presolve eliminated 181888 rows and 43050 columns.
MIP Presolve added 6048 rows and 0 columns.
MIP Presolve modified 48874 coefficients.
Aggregator did 25839 substitutions.
Reduced MIP has 45316 rows, 38698 columns, and 125614 nonzeros.
Reduced MIP has 15232 binaries, 0 generals, 0 SOSs, and 0 indicators.
Presolve time = 0.58 sec. (333.79 ticks)
Probing fixed 749 vars, tightened 6838 bounds.
Probing time = 0.38 sec. (13.11 ticks)
Tried aggregator 2 times.
MIP Presolve eliminated 1692 rows and 1500 columns.
MIP Presolve modified 5389 coefficients.
Aggregator did 60 substitutions.
Reduced MIP has 43564 rows, 37138 columns, and 120550 nonzeros.
Reduced MIP has 14482 binaries, 0 generals, 0 SOSs, and 0 indicators.
Presolve time = 0.23 sec. (207.12 ticks)
Probing fixed 1 vars, tightened 146 bounds.
Probing time = 0.53 sec. (16.63 ticks)
Clique table members: 79499.
MIP emphasis: balance optimality and feasibility.
MIP search method: dynamic search.
Parallel mode: opportunistic, using up to 32 threads.
Root relaxation solution time = 0.94 sec. (1696.06 ticks)

        Nodes                                         Cuts/
   Node  Left     Objective  IInf  Best Integer    Best Bound    ItCnt     Gap

*     0+    0                            0.0000   1.18126e+07              --- 
      0     0    28389.1386   349        0.0000    28389.1386    10464     --- 
*     0+    0                            0.0000    28389.1386              --- 
      0     0    27344.4735   377        0.0000     Cuts: 377    11067     --- 
      0     0    27196.7714   392        0.0000     Cuts: 320    11392     --- 
      0     0    27191.4587   395        0.0000     Cuts: 156    11482     --- 
      0     0    27191.4587   390        0.0000      Cuts: 96    11505     --- 
      0     0    27191.4587   389        0.0000      Cuts: 16    11514     --- 
      0     0    27191.4587   321        0.0000    MIRcuts: 5    11515     --- 
      0     0    27191.4587   323        0.0000      Cuts: 13    11521     --- 
      0    40    26046.4782   299        0.0000      Cuts: 17    12206     --- 
Elapsed time = 11.28 sec. (6288.43 ticks, tree = 0.03 MB, solutions = 2)
    218    94    infeasible              0.0000    26853.4320    13960     --- 
    432    52    infeasible              0.0000    26853.4320    12566     --- 
    656   261    20431.5704   207        0.0000    26853.4320    21591     --- 
    961   192    20002.2402   195        0.0000    26853.4320    19294     --- 
   1239   417    20346.1871   210        0.0000    26853.4320    26718     --- 
   1503   812    15765.0190   149        0.0000    26853.4320    35578     --- 
   1745   875    11870.6654    85        0.0000    26853.4320    36435     --- 
   2017  1048    13376.8331   142        0.0000    26853.4320    39692     --- 
   2311  1240        cutoff              0.0000    26853.4320    45353     --- 
   3511  1814      218.6493    61        0.0000    26341.9540    77490     --- 
Elapsed time = 32.30 sec. (9399.23 ticks, tree = 37.92 MB, solutions = 2)
   4750  2810     7050.6627   116        0.0000    24904.5854   125539     --- 
   5964  3128        cutoff              0.0000    24904.5854   142889     --- 
   7141  4000     2665.2864    83        0.0000    24904.5854   196220     --- 
   8414  4657     8519.9572   105        0.0000    24904.5854   236758     --- 
   8515  5657    infeasible              0.0000     8153.4126   303594     --- 
   8806    28      223.0177   101        0.0000     3175.5161   317057     --- 
   8901    30        cutoff              0.0000     3175.5161   310270     --- 

Cover cuts applied:  3
Implied bound cuts applied:  23
Flow cuts applied:  114
Mixed integer rounding cuts applied:  38
Lift and project cuts applied:  9
Gomory fractional cuts applied:  9

Root node processing (before b&c):
  Real time             =    8.08 sec. (6212.94 ticks)
Parallel b&c, 32 threads:
  Real time             =   67.63 sec. (16645.14 ticks)
  Sync time (average)   =    6.18 sec.
  Wait time (average)   =    0.30 sec.
                          ------------
Total (root+branch&cut) =   75.70 sec. (22858.08 ticks)

Solution pool: 2 solutions saved.

MIP - Integer optimal solution:  Objective =  4.9321092774e-06
Solution time =   75.73 sec.  Iterations = 320689  Nodes = 8946
Deterministic time = 22858.39 ticks  (301.82 ticks/sec)

CPLEX> Incumbent solution written to file 'C:\Users\llavin\Desktop\test85\logs\tmpr426aisb.cplex.sol'.
CPLEX> Exporting results... 
